
Gurobi 9.5.1 (linux64) logging started Mon 25 Jul 2022 11:11:04 AM MST

Set parameter LogFile to value "/home/local/ASUAD/kmajd1/NNRepLayer_v2/demos/walking_example/dynamic_constraint/repair_net/logs/opt_log_7_25_2022_10_54_14.log"
Gurobi Optimizer version 9.5.1 build v9.5.1rc2 (linux64)
Thread count: 48 physical cores, 96 logical processors, using up to 60 threads
Optimize a model with 339678 rows, 270094 columns and 5344878 nonzeros
Model fingerprint: 0x1689e7d3
Model has 270 quadratic objective terms
Variable types: 200974 continuous, 69120 integer (69120 binary)
Coefficient statistics:
  Matrix range     [3e-05, 2e+02]
  Objective range  [5e-04, 2e+00]
  QObjective range [7e-02, 7e-02]
  Bounds range     [3e-01, 1e+03]
  RHS range        [1e-06, 2e+02]

Concurrent MIP optimizer: 3 concurrent instances (20 threads per instance)

Presolve removed 578 rows and 76 columns (presolve time = 5s) ...
Presolve removed 9027 rows and 16974 columns (presolve time = 10s) ...
Presolve removed 17476 rows and 16974 columns (presolve time = 15s) ...
Presolve removed 17476 rows and 16974 columns (presolve time = 20s) ...
Presolve removed 17476 rows and 16974 columns
Presolve time: 21.00s
Presolved: 322202 rows, 253120 columns, 5310548 nonzeros
Presolved model has 270 quadratic objective terms
Variable types: 184038 continuous, 69082 integer (69082 binary)
Root relaxation presolve removed 69079 rows and 69079 columns (presolve time = 5s) ...
Root relaxation presolve removed 69079 rows and 69079 columns (presolve time = 10s) ...
Root relaxation presolve removed 69079 rows and 69079 columns (presolve time = 15s) ...
Root relaxation presolve removed 69079 rows and 69079 columns (presolve time = 20s) ...
Root relaxation presolve removed 69079 rows and 69079 columns (presolve time = 25s) ...
Root relaxation presolve removed 69079 rows and 69079 columns (presolve time = 30s) ...
Root relaxation presolve removed 69079 rows and 69079 columns
Root relaxation presolved: 253123 rows, 184041 columns, 5103311 nonzeros
Root relaxation presolved model has 270 quadratic objective terms


Root simplex log...

Iteration    Objective       Primal Inf.    Dual Inf.      Time
       0    2.5787984e+01   0.000000e+00   0.000000e+00     56s
   32201    2.5787984e+01   1.396316e+04   0.000000e+00     60s
  103255    2.5787984e+01   3.459552e+03   0.000000e+00     65s
  131169    2.5787984e+01   0.000000e+00   0.000000e+00     68s
  131169    2.5787984e+01   0.000000e+00   0.000000e+00     68s

Root relaxation: objective 2.578798e+01, 131169 iterations, 44.46 seconds (55.57 work units)

    Nodes    |    Current Node    |     Objective Bounds      |     Work
 Expl Unexpl |  Obj  Depth IntInf | Incumbent    BestBd   Gap | It/Node Time

     0     0      -    -    -              -   25.78798      -     -   70s
     0     0      -    -    -              -   25.78798      -     -  178s
     0     2      -    -    -              -   25.78798      -     -  407s
     1     4      -    -    -              -   25.78798      -     -  429s
     3     8      -    -    -              -   25.78798      -     -  434s
     7    16      -    -    -              -   25.78798      -     -  498s
    15    32      -    -    -              -   25.78798      -     -  611s
    31    52      -    -    -              -   25.78798      -     -  616s
    71    92      -    -    -              -   25.78798      -     -  622s
    91   112      -    -    -              -   25.78798      -     -  626s
   111   132      -    -    -              -   25.78798      -     -  631s
   151   172      -    -    -              -   25.78798      -     -  637s
   171   192      -    -    -              -   25.78798      -     -  640s
   191   212      -    -    -              -   25.78798      -     -  645s
   211   232      -    -    -              -   25.78798      -     -  650s
   251   272      -    -    -              -   25.78798      -     -  728s
   271   292      -    -    -              -   25.78798      -     -  731s
   311   332      -    -    -              -   25.78798      -     -  784s
   331   359      -    -    -              -   25.78798      -     -  847s
   358   388      -    -    -              -   25.78798      -     -  855s
   387   419      -    -    -              -   25.78798      -     -  862s
   418   457      -    -    -              -   25.78798      -     -  867s
   456   511      -    -    -              -   25.78798      -     -  870s
   510   565      -    -    -              -   25.78798      -     -  961s
   635   704      -    -    -              -   25.78798      -     - 1150s
   703   778      -    -    -              -   25.78798      -     - 1158s
   777   858      -    -    -              -   25.78798      -     - 1173s
   857   946      -    -    -              -   25.78798      -     - 1180s
   945  1034      -    -    -              -   25.78798      -     - 1187s
  1033  1120      -    -    -              -   25.78798      -     - 1201s
  1119  1213      -    -    -              -   25.78798      -     - 1208s
  1212  1311      -    -    -              -   25.78798      -     - 1218s
  1310  1419      -    -    -              -   25.78798      -     - 1228s
  1418  1535      -    -    -              -   25.78798      -     - 1239s
  1534  1654      -    -    -              -   25.78798      -     - 1245s
  1653  1783      -    -    -              -   25.78798      -     - 1284s
  1782  1912      -    -    -              -   25.78798      -     - 1297s
  1911  2047      -    -    -              -   25.78798      -     - 1307s
  2046  2188      -    -    -              -   25.78798      -     - 1318s
  2187  2337      -    -    -              -   25.78798      -     - 1328s
  2336  2490      -    -    -              -   25.78798      -     - 1339s
  2489  2623      -    -    -              -   25.78798      -     - 1349s
  2622  2773      -    -    -              -   25.78798      -     - 1359s
  2772  2941      -    -    -              -   25.78798      -     - 1367s
  2940  3116      -    -    -              -   25.78798      -     - 1378s
  3115  3287      -    -    -              -   25.78798      -     - 1395s
  3288  3430      -    -    -              -   25.78798      -     - 1407s
  3433  3576      -    -    -              -   25.78798      -     - 1417s
  3583  3744      -    -    -              -   25.78798      -     - 1435s
  3751  3954      -    -    -              -   25.78798      -     - 1489s
  3961  4153      -    -    -              -   25.78798      -     - 1513s
  4160  4327      -    -    -              -   25.78798      -     - 1605s
  4334  4542      -    -    -              -   25.78798      -     - 1630s
  4549  4765      -    -    -              -   25.78798      -     - 1645s
  4772  5029      -    -    -              -   25.78798      -     - 1655s
  5036  5270      -    -    -              -   25.78798      -     - 1676s
  5277  5564      -    -    -              -   25.78798      -     - 1688s
  5571  5868      -    -    -              -   25.78798      -     - 1705s
  5875  6188      -    -    -              -   25.78798      -     - 1717s
  6199  6447      -    -    -              -   25.78798      -     - 1739s
  6460  6791      -    -    -              -   25.78798      -     - 1752s
  6806  7148      -    -    -              -   25.78798      -     - 1808s
  7163  7460      -    -    -              -   25.78798      -     - 1826s
  7475  7818      -    -    -              -   25.78798      -     - 1840s
  7833  8228      -    -    -              -   25.78798      -     - 1860s
  8243  8662      -    -    -              -   25.78798      -     - 1878s
  8677  9120      -    -    -              -   25.78798      -     - 1894s
  9135  9597      -    -    -              -   25.78798      -     - 1919s
  9612 10005      -    -    -              -   25.78798      -     - 1945s
 10022 10427      -    -    -              -   25.78798      -     - 2113s
 10444 10848      -    -    -              -   25.78798      -     - 2193s
 10865 11014      -    -    -              -   25.78798      -     - 2235s
 11031 11539      -    -    -     17279.6646   25.78798   100%     - 2373s
 11557 11540      -    -    -     17279.6646   25.78798   100%     - 2408s
 11558 11541      -    -    -     17279.6646   25.78798   100%     - 2410s
 11559 11541      -    -    -     3226.10080   25.78798  99.2%     - 2516s
 11561 11543      -    -    -     3226.10080   25.78798  99.2%     - 2881s
 11562 11546      -    -    -     2520.53930   25.78798  99.0%     - 3356s
 11564 10424      -    -    -     2520.53930   25.78798  99.0%     - 3590s
 11568 10430      -    -    -     2520.53930   25.78798  99.0%     - 3596s
 11576 10444      -    -    -     2520.53930   25.78798  99.0%     - 4339s
 11592 10458      -    -    -     2520.53930   25.78798  99.0%     - 4345s
 11612 10472      -    -    -     2520.53930   25.78798  99.0%     - 4350s
 11632 10485      -    -    -     2520.53930   25.78798  99.0%     - 4358s
 11652 10498      -    -    -     2520.53930   25.78798  99.0%     - 4363s
 11672  9991      -    -    -     2520.53930   25.78798  99.0%     - 4620s
 11692  9041      -    -    -     2409.54732   25.78798  98.9%     - 4636s
 11714  9073      -    -    -     2409.54732   25.78798  98.9%     - 4645s
 11753  9082      -    -    -     2409.54732   25.78798  98.9%     - 4682s
 11775  8670      -    -    -      173.48496   25.78798  85.1%     - 4691s
 11818  8252      -    -    -      173.48496   25.78798  85.1%     - 5806s
 11838  6447      -    -    -      148.92217   25.78798  82.7%     - 5840s
 11864  6508      -    -    -      148.92217   25.78798  82.7%     - 5859s
 11933  6543      -    -    -      148.92217   25.78798  82.7%     - 5896s
 11991  6594      -    -    -      148.92217   25.78798  82.7%     - 5925s
 12062  6642      -    -    -      148.92217   25.78798  82.7%     - 5941s
 12135  6687      -    -    -      148.92217   25.78798  82.7%     - 5968s
 12207  6737      -    -    -      148.92217   25.78798  82.7%     - 5988s
 12281  6784      -    -    -      148.92217   25.78798  82.7%     - 6006s
 12354  6829      -    -    -      148.92217   25.78798  82.7%     - 6056s
 12428  6877      -    -    -      148.92217   25.78798  82.7%     - 6073s
 12508  6929      -    -    -      148.92217   25.78798  82.7%     - 6098s
 12589  6987      -    -    -      148.92217   25.78798  82.7%     - 6113s
 12680  7056      -    -    -      148.92217   25.78798  82.7%     - 6139s
 12783  7120      -    -    -      148.92217   25.78798  82.7%     - 7835s
 12882  6796      -    -    -      148.87343   25.78798  82.7%     - 8280s
 12902  6644      -    -    -      115.29875   25.78798  77.6%     - 8314s
 13058  6747      -    -    -      115.29875   25.78798  77.6%     - 8349s
 13217  6851      -    -    -      115.29875   25.78798  77.6%     - 8385s
 13377  6949      -    -    -      115.29875   25.78798  77.6%     - 8417s
 13533  7053      -    -    -      115.29875   25.78798  77.6%     - 8466s
 13697  7161      -    -    -      115.29875   25.78798  77.6%     - 8506s
 13869  7280      -    -    -      115.29875   25.78798  77.6%     - 8546s
 14050  7387      -    -    -      115.29875   25.78798  77.6%     - 8586s
 14225  7521      -    -    -      115.29875   25.78798  77.6%     - 8622s
 14419  7648      -    -    -      115.29875   25.78798  77.6%     - 8654s
 14621  7783      -    -    -      115.29875   25.78798  77.6%     - 8699s
 14833  7911      -    -    -      115.29875   25.78798  77.6%     - 8754s
 15052  8060      -    -    -      115.29875   25.78798  77.6%     - 8796s
 15280  8203      -    -    -      115.29875   25.78798  77.6%     - 8878s
 15507  8383      -    -    -      115.29875   25.78798  77.6%     - 9102s
 15771  8567      -    -    -      115.29875   25.78798  77.6%     - 9160s
 16051  8772      -    -    -      115.29875   25.78798  77.6%     - 9212s
 16355  8967      -    -    -      115.29875   25.78798  77.6%     - 9257s
 16667  9194      -    -    -      115.29875   25.78798  77.6%     - 9322s
 17004  9436      -    -    -      115.29875   25.78798  77.6%     - 9370s
 17361  9665      -    -    -      115.29875   25.78798  77.6%     - 9422s
 17729  9909      -    -    -      115.29875   25.78798  77.6%     - 9483s
 18115 10161      -    -    -      115.29875   25.78798  77.6%     - 9547s
 18504 10453      -    -    -      115.29875   25.78798  77.6%     - 9598s
 18934 10796      -    -    -      115.29875   25.78798  77.6%     - 9668s
 19422 11121      -    -    -      115.29875   25.78798  77.6%     - 10177s
 19924 11455      -    -    -      115.29875   25.78798  77.6%     - 10226s
 20435 11816      -    -    -      115.29875   25.78798  77.6%     - 10319s
 20978 12189      -    -    -      115.29875   25.78798  77.6%     - 10444s
 21552 12601      -    -    -      115.29875   25.78798  77.6%     - 10518s
 22185 13012      -    -    -      115.29875   25.78798  77.6%     - 10601s
 22822 13436      -    -    -      115.29875   25.78798  77.6%     - 10700s
 23494 14252      -    -    -      115.29875   25.78798  77.6%     - 10923s
 24594 14495      -    -    -      115.29875   25.78798  77.6%     - 11005s
 25230 14861      -    -    -      115.29875   25.78798  77.6%     - 11079s
 25852 15254      -    -    -      115.29875   25.78798  77.6%     - 11209s
 26493 14778      -    -    -      115.29875   25.78798  77.6%     - 11659s
 26513 15436      -    -    -      115.29875   25.78798  77.6%     - 11745s
 27202 15893      -    -    -      115.29875   25.78798  77.6%     - 11820s
 27900 16388      -    -    -      115.29875   25.78798  77.6%     - 12099s
 28559 17104      -    -    -      115.29875   25.78798  77.6%     - 12175s
 29313 17806      -    -    -      115.29875   25.78798  77.6%     - 12336s
 30065 18587      -    -    -      115.29875   25.78798  77.6%     - 12435s
 30889 19350      -    -    -      115.29875   25.78798  77.6%     - 12509s
 31670 20180      -    -    -      115.29875   25.78798  77.6%     - 12595s
 32510 21006      -    -    -      115.29875   25.78798  77.6%     - 12681s
 33368 21869      -    -    -      115.29875   25.78798  77.6%     - 12789s
 34243 22768      -    -    -      115.29875   25.78798  77.6%     - 12907s
 35166 23719      -    -    -      115.29875   25.78798  77.6%     - 13011s
 36121 24642      -    -    -      115.29875   25.78798  77.6%     - 13182s
 37062 25584      -    -    -      115.29875   25.78798  77.6%     - 13298s
 38020 26519      -    -    -      115.29875   25.78798  77.6%     - 13413s
 38979 27442      -    -    -      115.29875   25.78798  77.6%     - 13523s
 39916 28354      -    -    -      115.29875   25.78798  77.6%     - 13637s
 40856 29287      -    -    -      115.29875   25.78798  77.6%     - 13760s
 41791 30230      -    -    -      115.29875   25.78798  77.6%     - 13875s
 42740 31151      -    -    -      115.29875   25.78798  77.6%     - 13997s
 43663 32054      -    -    -      115.29875   25.78798  77.6%     - 14095s
 44580 32882      -    -    -      115.29875   25.78798  77.6%     - 14201s
 45444 33764      -    -    -      115.29875   25.78798  77.6%     - 14305s
 46332 34861      -    -    -      115.29875   25.78798  77.6%     - 14521s
 47432 34739      -    -    -      114.99875   25.78798  77.6%     - 14765s
 47452 35528      -    -    -      110.54507   25.78798  76.7%     - 14902s
 48443 36450      -    -    -      110.54507   25.78798  76.7%     - 15038s
 49371 37342      -    -    -      110.54507   25.78798  76.7%     - 15169s
 50279 38249      -    -    -      110.54507   25.78798  76.7%     - 15278s
 51198 39186      -    -    -      110.54507   25.78798  76.7%     - 15404s
 52143 40114      -    -    -      110.54507   25.78798  76.7%     - 15508s
 53071 40987      -    -    -      110.54507   25.78798  76.7%     - 15624s
 53967 41914      -    -    -      110.54507   25.78798  76.7%     - 15745s
 54902 42789      -    -    -      110.54507   25.78798  76.7%     - 15864s
 55799 43679      -    -    -      110.54507   25.78798  76.7%     - 15979s
 56689 44548      -    -    -      110.54507   25.78798  76.7%     - 16091s
 57566 45424      -    -    -      110.54507   25.78798  76.7%     - 16207s
 58442 46349      -    -    -      110.54507   25.78798  76.7%     - 16324s
 59388 47193      -    -    -      110.54507   25.78798  76.7%     - 16530s
 60264 48053      -    -    -      110.54507   25.78798  76.7%     - 16654s
 61146 48843      -    -    -      110.54507   25.78798  76.7%     - 16778s
 62027 49644      -    -    -      110.54507   25.78798  76.7%     - 17004s
 62881 50547      -    -    -      110.54507   25.78798  76.7%     - 17137s
 63819 51392      -    -    -      110.54507   25.78798  76.7%     - 17252s
 64727 52224      -    -    -      110.54507   25.78798  76.7%     - 17390s
 65662 52945      -    -    -      110.54507   25.78798  76.7%     - 17524s
 66592 53725      -    -    -      110.54507   25.78798  76.7%     - 17641s
 67499 54566      -    -    -      110.54507   25.78798  76.7%     - 17776s
 68398 55287      -    -    -      110.54507   25.78798  76.7%     - 17927s
 69178 56226      -    -    -      110.54507   25.78798  76.7%     - 18189s
